p cnf 21 75
-1 -2 -3 -8 0
1 -12 0
16 19 0
-9 3 0
-10 5 0
-11 6 0
-1 2 0
-1 3 0
-1 4 0
-1 5 0
-1 6 0
-1 7 0
1 12 -8 0
-1 -12 8 0
2 13 -3 0
-2 -13 3 0
2 -4 0
2 14 -5 0
-2 -14 5 0
2 15 -6 0
-2 -15 6 0
2 -7 0
2 -8 0
3 -4 0
3 16 -5 0
-3 -16 5 0
3 17 -6 0
-3 -17 6 0
3 18 -7 0
-3 -18 7 0
3 -8 0
4 19 -5 0
-4 -19 5 0
-4 6 0
-4 7 0
4 -8 0
-5 6 0
5 20 -7 0
-5 -20 7 0
5 21 -8 0
-5 -21 8 0
6 -7 0
6 -8 0
7 -8 0
13 -9 0
14 -10 0
15 -11 0
9 16 -10 0
-9 -16 10 0
9 17 -11 0
-9 -17 11 0
-9 -18 0
19 -10 0
-10 11 0
-10 -20 0
-10 -21 0
-21 12 0
13 16 -14 0
-13 -16 14 0
13 17 -15 0
-13 -17 15 0
-13 -18 0
19 -14 0
-14 15 0
-14 -20 0
-14 -21 0
19 -16 0
-16 17 0
16 20 -18 0
-16 -20 18 0
-16 -21 0
17 -18 0
19 20 0
-19 -21 0
20 -21 0
